
Gurobi 7.0.2 (win64, Python) logging started 06/28/17 13:48:34


Gurobi 7.0.2 (win64, Python) logging started 06/28/17 13:57:02


Gurobi 7.0.2 (win64, Python) logging started 06/28/17 14:09:10


Gurobi 7.0.2 (win64, Python) logging started 06/28/17 14:15:04


Gurobi 7.0.2 (win64, Python) logging started 06/28/17 14:52:45


Gurobi 7.0.2 (win64, Python) logging started 06/28/17 17:04:30


Gurobi 7.0.2 (win64, Python) logging started 06/28/17 17:18:39


Gurobi 7.0.2 (win64, Python) logging started 06/29/17 09:55:27

Optimize a model with 10962 rows, 32642 columns and 114239 nonzeros
Variable types: 32634 continuous, 8 integer (8 binary)
Coefficient statistics:
  Matrix range     [1e+00, 3e+05]
  Objective range  [1e+00, 1e+00]
  Bounds range     [1e+00, 1e+00]
  RHS range        [9e-05, 5e+07]
Presolve removed 8170 rows and 5450 columns
Presolve time: 0.12s
Presolved: 2792 rows, 27192 columns, 51772 nonzeros
Variable types: 27184 continuous, 8 integer (8 binary)

Root relaxation: objective 1.376775e+05, 8741 iterations, 2.53 seconds

    Nodes    |    Current Node    |     Objective Bounds      |     Work
 Expl Unexpl |  Obj  Depth IntInf | Incumbent    BestBd   Gap | It/Node Time

     0     0 137677.505    0    4          - 137677.505      -     -    2s
     0     2 137677.505    0    4          - 137677.505      -     -    2s
*    6     6               2    168149.96341 138554.696  17.6%  1509    4s
*    8     6               3    168133.03318 138554.748  17.6%  1519    4s
    19    12 140252.085    5    2 168133.033 138743.924  17.5%  1122    5s
*   30     7               7    140760.48647 139212.088  1.10%   878    5s
*   35     9               7    140662.13719 139336.755  0.94%   817    5s
*   38     1               7    139451.32881 139451.329  0.00%   763    5s

Explored 42 nodes (38100 simplex iterations) in 5.49 seconds
Thread count was 8 (of 8 available processors)

Solution count 5: 139451 140662 140760 ... 168150
Pool objective bound 139451

Optimal solution found (tolerance 1.00e-04)
Best objective 1.394513288053e+05, best bound 1.394513288053e+05, gap 0.0000%
Optimize a model with 10962 rows, 32642 columns and 114239 nonzeros
Variable types: 32634 continuous, 8 integer (8 binary)
Coefficient statistics:
  Matrix range     [1e+00, 3e+05]
  Objective range  [1e+00, 1e+00]
  Bounds range     [1e+00, 1e+00]
  RHS range        [9e-05, 5e+07]
Presolve removed 8170 rows and 5450 columns
Presolve time: 0.12s
Presolved: 2792 rows, 27192 columns, 51772 nonzeros
Variable types: 27184 continuous, 8 integer (8 binary)

Root relaxation: objective 1.376775e+05, 8741 iterations, 2.53 seconds

    Nodes    |    Current Node    |     Objective Bounds      |     Work
 Expl Unexpl |  Obj  Depth IntInf | Incumbent    BestBd   Gap | It/Node Time

     0     0 137677.505    0    4          - 137677.505      -     -    2s
     0     2 137677.505    0    4          - 137677.505      -     -    2s
*    6     6               2    168149.96341 138554.696  17.6%  1509    4s
*    8     6               3    168133.03318 138554.748  17.6%  1519    4s
    15     8 141557.780    4    4 168133.033 138734.594  17.5%  1249    5s
*   30     7               7    140760.48647 139212.088  1.10%   878    5s
*   35     9               7    140662.13719 139336.755  0.94%   817    5s
*   38     1               7    139451.32881 139451.329  0.00%   763    5s

Explored 42 nodes (38100 simplex iterations) in 5.59 seconds
Thread count was 8 (of 8 available processors)

Solution count 5: 139451 140662 140760 ... 168150
Pool objective bound 139451

Optimal solution found (tolerance 1.00e-04)
Best objective 1.394513288053e+05, best bound 1.394513288053e+05, gap 0.0000%
Optimize a model with 10962 rows, 32642 columns and 114239 nonzeros
Variable types: 32634 continuous, 8 integer (8 binary)
Coefficient statistics:
  Matrix range     [1e+00, 3e+05]
  Objective range  [1e+00, 1e+00]
  Bounds range     [1e+00, 1e+00]
  RHS range        [9e-05, 5e+07]
Presolve removed 8170 rows and 5450 columns
Presolve time: 0.13s
Presolved: 2792 rows, 27192 columns, 51772 nonzeros
Variable types: 27184 continuous, 8 integer (8 binary)

Root relaxation: objective 1.376775e+05, 8741 iterations, 2.52 seconds

    Nodes    |    Current Node    |     Objective Bounds      |     Work
 Expl Unexpl |  Obj  Depth IntInf | Incumbent    BestBd   Gap | It/Node Time

     0     0 137677.505    0    4          - 137677.505      -     -    2s
     0     2 137677.505    0    4          - 137677.505      -     -    2s
*    6     6               2    168149.96341 138554.696  17.6%  1509    4s
*    8     6               3    168133.03318 138554.748  17.6%  1519    4s
    15     8 141557.780    4    4 168133.033 138734.594  17.5%  1249    5s
*   30     7               7    140760.48647 139212.088  1.10%   878    5s
*   35     9               7    140662.13719 139336.755  0.94%   817    5s
*   38     1               7    139451.32881 139451.329  0.00%   763    5s

Explored 42 nodes (38100 simplex iterations) in 5.54 seconds
Thread count was 8 (of 8 available processors)

Solution count 5: 139451 140662 140760 ... 168150
Pool objective bound 139451

Optimal solution found (tolerance 1.00e-04)
Best objective 1.394513288053e+05, best bound 1.394513288053e+05, gap 0.0000%

Gurobi 7.0.2 (win64, Python) logging started 06/29/17 10:19:21


Gurobi 7.0.2 (win64, Python) logging started 06/29/17 10:24:23


Gurobi 7.0.2 (win64, Python) logging started 06/29/17 10:30:37


Gurobi 7.0.2 (win64, Python) logging started 06/29/17 13:58:53


Gurobi 7.0.2 (win64, Python) logging started 06/29/17 14:02:00


Gurobi 7.0.2 (win64, Python) logging started 06/29/17 14:03:06


Gurobi 7.0.2 (win64, Python) logging started 06/29/17 14:04:04


Gurobi 7.0.2 (win64, Python) logging started 07/05/17 17:02:07


Gurobi 7.0.2 (win64, Python) logging started 07/07/17 13:30:46


Gurobi 7.0.2 (win64, Python) logging started 07/07/17 15:19:39


Gurobi 7.0.2 (win64, Python) logging started 07/07/17 15:37:27

Optimize a model with 71489 rows, 126627 columns and 576061 nonzeros
Variable types: 126621 continuous, 6 integer (6 binary)
Coefficient statistics:
  Matrix range     [4e-03, 1e+04]
  Objective range  [1e+00, 1e+00]
  Bounds range     [1e+00, 1e+00]
  RHS range        [2e-08, 9e+03]
Presolve removed 56410 rows and 56549 columns
Presolve time: 1.01s
Presolved: 15079 rows, 70078 columns, 192456 nonzeros
Variable types: 70072 continuous, 6 integer (6 binary)

Root simplex log...

Iteration    Objective       Primal Inf.    Dual Inf.      Time
    9796    4.8894944e+02   9.475475e+00   0.000000e+00      5s
   17162    5.1864936e+02   6.222503e+00   0.000000e+00     10s
   23922    5.3523743e+02   8.343421e+00   0.000000e+00     15s
   29122    5.3943729e+02   5.466984e+00   0.000000e+00     20s
   33282    5.4017883e+02   1.892298e+00   0.000000e+00     26s
   36402    5.4029485e+02   1.329703e+00   0.000000e+00     30s
   40042    5.4039327e+02   1.675074e+00   0.000000e+00     36s
   43162    5.4050420e+02   1.966822e+00   0.000000e+00     40s
   46802    5.4060260e+02   2.145741e+00   0.000000e+00     45s
   50962    5.4071652e+02   1.434500e+00   0.000000e+00     51s
   54602    5.4080897e+02   1.666613e+00   0.000000e+00     56s
   58242    5.4091373e+02   1.932144e+00   0.000000e+00     60s
   62402    5.4101010e+02   1.054337e+00   0.000000e+00     66s
   66042    5.4109292e+02   3.104582e+00   0.000000e+00     70s
   69682    5.4119534e+02   1.600512e+00   0.000000e+00     75s
   73842    5.4130467e+02   1.577303e+00   0.000000e+00     80s
   78002    5.4144625e+02   1.749137e+00   0.000000e+00     86s
   82162    5.4155838e+02   9.057298e-01   0.000000e+00     90s
   86322    5.4167212e+02   1.180298e+00   0.000000e+00     95s
   90482    5.4181046e+02   1.386176e+00   0.000000e+00    101s
   94122    5.4190755e+02   8.362763e-01   0.000000e+00    105s
   97762    5.4201411e+02   9.437011e-01   0.000000e+00    110s
  101402    5.4211859e+02   1.043095e+00   0.000000e+00    115s
  105042    5.4222223e+02   1.658076e+00   0.000000e+00    120s
  108682    5.4232981e+02   1.573461e+00   0.000000e+00    125s
  112842    5.4246117e+02   1.444554e+00   0.000000e+00    131s
  116482    5.4257587e+02   1.573010e+00   0.000000e+00    135s
  120122    5.4268659e+02   1.656859e+00   0.000000e+00    140s
  123762    5.4288815e+02   1.625508e+00   0.000000e+00    145s
  127402    5.4306555e+02   4.163151e+00   0.000000e+00    150s
  130522    5.4320189e+02   1.382067e+00   0.000000e+00    155s
  134682    5.4337920e+02   1.653880e+00   0.000000e+00    161s
  137802    5.4353424e+02   1.522972e+00   0.000000e+00    165s
  140922    5.4360330e+02   1.281666e+00   0.000000e+00    170s
  144042    5.4368146e+02   1.249644e+00   0.000000e+00    175s
  147162    5.4377495e+02   1.377684e+00   0.000000e+00    180s
  150282    5.4384312e+02   1.248395e+00   0.000000e+00    186s
  153402    5.4393662e+02   1.792551e+00   0.000000e+00    191s
  156002    5.4407171e+02   1.477076e+00   0.000000e+00    195s
  159642    5.4421201e+02   1.352548e+00   0.000000e+00    200s
  162762    5.4429237e+02   2.335574e+00   0.000000e+00    206s
  165362    5.4437222e+02   1.160976e+00   0.000000e+00    210s
  169002    5.4447609e+02   1.430626e+00   0.000000e+00    216s
  171602    5.4454928e+02   1.383959e+00   0.000000e+00    220s
  174722    5.4462860e+02   1.284206e+00   0.000000e+00    225s
  177842    5.4477520e+02   3.506956e+00   0.000000e+00    230s
  181482    5.4485051e+02   2.067244e+00   0.000000e+00    236s
  184602    5.4512010e+02   2.178361e+00   0.000000e+00    241s
  188242    5.4545367e+02   1.702964e+00   0.000000e+00    246s
  191882    5.4576852e+02   2.813958e+00   0.000000e+00    251s
  195513    5.4603942e+02   2.628612e+00   0.000000e+00    255s
  198633    5.4615831e+02   2.841235e+00   0.000000e+00    260s
  201753    5.4624569e+02   1.528448e+00   0.000000e+00    265s
  205393    5.4640543e+02   1.355696e+00   0.000000e+00    270s
  209033    5.4652181e+02   1.355562e+00   0.000000e+00    275s
  213193    5.4671624e+02   1.445659e+00   0.000000e+00    280s
  216833    5.4717874e+02   1.935832e+00   0.000000e+00    285s
  220473    5.4767291e+02   1.672018e+00   0.000000e+00    290s
  224633    5.4833215e+02   1.260790e+00   0.000000e+00    296s
  228273    5.4884139e+02   1.110339e+02   0.000000e+00    300s
  231913    5.4931003e+02   1.895721e+00   0.000000e+00    305s
  236593    5.5012713e+02   1.624684e+00   0.000000e+00    310s
  240753    5.5122154e+02   2.218558e+00   0.000000e+00    315s
  244393    5.5748194e+02   1.015299e+00   0.000000e+00    321s
  249073    5.5883756e+02   7.117183e-02   0.000000e+00    325s
  250844    5.5899482e+02   0.000000e+00   0.000000e+00    327s

Root relaxation: objective 5.589948e+02, 250844 iterations, 326.04 seconds

    Nodes    |    Current Node    |     Objective Bounds      |     Work
 Expl Unexpl |  Obj  Depth IntInf | Incumbent    BestBd   Gap | It/Node Time

*    0     0               0     558.9948185  558.99482  0.00%     -  327s

Explored 0 nodes (250844 simplex iterations) in 327.28 seconds
Thread count was 8 (of 8 available processors)

Solution count 1: 558.995 
Pool objective bound 558.995

Optimal solution found (tolerance 1.00e-04)
Warning: max bound violation (1.2941e-03) exceeds tolerance
         (model may be infeasible or unbounded - try turning presolve off)
Best objective 5.589948184724e+02, best bound 5.589948184724e+02, gap 0.0000%
